c turning on binary mode checking
c parsing input formula with 259840 variables and 1039934 clauses
c finished parsing, read 3044774 bytes from proof file
c detected empty clause; start verification via backward checking
c 4292 of 1039934 clauses in core                            
c 1269 of 126818 lemmas in core using 36140 resolution steps
c 0 RAT lemmas in core; 209 redundant literals in core lemmas
s VERIFIED
c verification time: 1.261 seconds
